data/mps_files/pEFS/141_1.mps
NAME foo
ROWS
 N  OBJ
 E  allocateEach[1]
 E  allocateAllCash
 G  findWorstP[1,2]
 G  findWorstP[1,3]
 G  findWorstP[1,4]
 G  findWorstP[1,5]
 G  findWorstP[1,6]
 G  findWorstP[1,7]
 G  findWorstP[1,8]
 G  findWorstP[2,1]
 G  findWorstP[2,3]
 G  findWorstP[2,4]
 G  findWorstP[2,5]
 G  findWorstP[2,6]
 G  findWorstP[2,7]
 G  findWorstP[2,8]
 G  findWorstP[3,1]
 G  findWorstP[3,2]
 G  findWorstP[3,4]
 G  findWorstP[3,5]
 G  findWorstP[3,6]
 G  findWorstP[3,7]
 G  findWorstP[3,8]
 G  findWorstP[4,1]
 G  findWorstP[4,2]
 G  findWorstP[4,3]
 G  findWorstP[4,5]
 G  findWorstP[4,6]
 G  findWorstP[4,7]
 G  findWorstP[4,8]
 G  findWorstP[5,1]
 G  findWorstP[5,2]
 G  findWorstP[5,3]
 G  findWorstP[5,4]
 G  findWorstP[5,6]
 G  findWorstP[5,7]
 G  findWorstP[5,8]
 G  findWorstP[6,1]
 G  findWorstP[6,2]
 G  findWorstP[6,3]
 G  findWorstP[6,4]
 G  findWorstP[6,5]
 G  findWorstP[6,7]
 G  findWorstP[6,8]
 G  findWorstP[7,1]
 G  findWorstP[7,2]
 G  findWorstP[7,3]
 G  findWorstP[7,4]
 G  findWorstP[7,5]
 G  findWorstP[7,6]
 G  findWorstP[7,8]
 G  findWorstP[8,1]
 G  findWorstP[8,2]
 G  findWorstP[8,3]
 G  findWorstP[8,4]
 G  findWorstP[8,5]
 G  findWorstP[8,6]
 G  findWorstP[8,7]
COLUMNS
    z         OBJ       1
    z         findWorstP[1,2]  1
    z         findWorstP[1,3]  1
    z         findWorstP[1,4]  1
    z         findWorstP[1,5]  1
    z         findWorstP[1,6]  1
    z         findWorstP[1,7]  1
    z         findWorstP[1,8]  1
    z         findWorstP[2,1]  1
    z         findWorstP[2,3]  1
    z         findWorstP[2,4]  1
    z         findWorstP[2,5]  1
    z         findWorstP[2,6]  1
    z         findWorstP[2,7]  1
    z         findWorstP[2,8]  1
    z         findWorstP[3,1]  1
    z         findWorstP[3,2]  1
    z         findWorstP[3,4]  1
    z         findWorstP[3,5]  1
    z         findWorstP[3,6]  1
    z         findWorstP[3,7]  1
    z         findWorstP[3,8]  1
    z         findWorstP[4,1]  1
    z         findWorstP[4,2]  1
    z         findWorstP[4,3]  1
    z         findWorstP[4,5]  1
    z         findWorstP[4,6]  1
    z         findWorstP[4,7]  1
    z         findWorstP[4,8]  1
    z         findWorstP[5,1]  1
    z         findWorstP[5,2]  1
    z         findWorstP[5,3]  1
    z         findWorstP[5,4]  1
    z         findWorstP[5,6]  1
    z         findWorstP[5,7]  1
    z         findWorstP[5,8]  1
    z         findWorstP[6,1]  1
    z         findWorstP[6,2]  1
    z         findWorstP[6,3]  1
    z         findWorstP[6,4]  1
    z         findWorstP[6,5]  1
    z         findWorstP[6,7]  1
    z         findWorstP[6,8]  1
    z         findWorstP[7,1]  1
    z         findWorstP[7,2]  1
    z         findWorstP[7,3]  1
    z         findWorstP[7,4]  1
    z         findWorstP[7,5]  1
    z         findWorstP[7,6]  1
    z         findWorstP[7,8]  1
    z         findWorstP[8,1]  1
    z         findWorstP[8,2]  1
    z         findWorstP[8,3]  1
    z         findWorstP[8,4]  1
    z         findWorstP[8,5]  1
    z         findWorstP[8,6]  1
    z         findWorstP[8,7]  1
    cashProportion[1]  allocateAllCash  1
    cashProportion[1]  findWorstP[1,2]  1.3757050488375294e-01
    cashProportion[1]  findWorstP[1,3]  1.3757050488375294e-01
    cashProportion[1]  findWorstP[1,4]  1.3757050488375294e-01
    cashProportion[1]  findWorstP[1,5]  1.3757050488375294e-01
    cashProportion[1]  findWorstP[1,6]  1.3757050488375294e-01
    cashProportion[1]  findWorstP[1,7]  1.3757050488375294e-01
    cashProportion[1]  findWorstP[1,8]  1.3757050488375294e-01
    cashProportion[1]  findWorstP[2,1]  -1.0017028949213665e-01
    cashProportion[1]  findWorstP[3,1]  -2.5393600812595224e-01
    cashProportion[1]  findWorstP[4,1]  -3.4281796366129585e-01
    cashProportion[1]  findWorstP[5,1]  -1.9319938176197834e-01
    cashProportion[1]  findWorstP[6,1]  -4.1203131437989288e-01
    cashProportion[1]  findWorstP[7,1]  -9.8010389101244738e-02
    cashProportion[1]  findWorstP[8,1]  -5.8343057176196034e-01
    cashProportion[2]  allocateAllCash  1
    cashProportion[2]  findWorstP[1,2]  -1.3757050488375294e-01
    cashProportion[2]  findWorstP[2,1]  1.0017028949213665e-01
    cashProportion[2]  findWorstP[2,3]  1.0017028949213665e-01
    cashProportion[2]  findWorstP[2,4]  1.0017028949213665e-01
    cashProportion[2]  findWorstP[2,5]  1.0017028949213665e-01
    cashProportion[2]  findWorstP[2,6]  1.0017028949213665e-01
    cashProportion[2]  findWorstP[2,7]  1.0017028949213665e-01
    cashProportion[2]  findWorstP[2,8]  1.0017028949213665e-01
    cashProportion[2]  findWorstP[3,2]  -2.5393600812595224e-01
    cashProportion[2]  findWorstP[4,2]  -3.4281796366129585e-01
    cashProportion[2]  findWorstP[5,2]  -1.9319938176197834e-01
    cashProportion[2]  findWorstP[6,2]  -4.1203131437989288e-01
    cashProportion[2]  findWorstP[7,2]  -9.8010389101244738e-02
    cashProportion[2]  findWorstP[8,2]  -5.8343057176196034e-01
    cashProportion[3]  allocateAllCash  1
    cashProportion[3]  findWorstP[1,3]  -1.3757050488375294e-01
    cashProportion[3]  findWorstP[2,3]  -1.0017028949213665e-01
    cashProportion[3]  findWorstP[3,1]  2.5393600812595224e-01
    cashProportion[3]  findWorstP[3,2]  2.5393600812595224e-01
    cashProportion[3]  findWorstP[3,4]  2.5393600812595224e-01
    cashProportion[3]  findWorstP[3,5]  2.5393600812595224e-01
    cashProportion[3]  findWorstP[3,6]  2.5393600812595224e-01
    cashProportion[3]  findWorstP[3,7]  2.5393600812595224e-01
    cashProportion[3]  findWorstP[3,8]  2.5393600812595224e-01
    cashProportion[3]  findWorstP[4,3]  -3.4281796366129585e-01
    cashProportion[3]  findWorstP[5,3]  -1.9319938176197834e-01
    cashProportion[3]  findWorstP[6,3]  -4.1203131437989288e-01
    cashProportion[3]  findWorstP[7,3]  -9.8010389101244738e-02
    cashProportion[3]  findWorstP[8,3]  -5.8343057176196034e-01
    cashProportion[4]  allocateAllCash  1
    cashProportion[4]  findWorstP[1,4]  -1.3757050488375294e-01
    cashProportion[4]  findWorstP[2,4]  -1.0017028949213665e-01
    cashProportion[4]  findWorstP[3,4]  -2.5393600812595224e-01
    cashProportion[4]  findWorstP[4,1]  3.4281796366129585e-01
    cashProportion[4]  findWorstP[4,2]  3.4281796366129585e-01
    cashProportion[4]  findWorstP[4,3]  3.4281796366129585e-01
    cashProportion[4]  findWorstP[4,5]  3.4281796366129585e-01
    cashProportion[4]  findWorstP[4,6]  3.4281796366129585e-01
    cashProportion[4]  findWorstP[4,7]  3.4281796366129585e-01
    cashProportion[4]  findWorstP[4,8]  3.4281796366129585e-01
    cashProportion[4]  findWorstP[5,4]  -1.9319938176197834e-01
    cashProportion[4]  findWorstP[6,4]  -4.1203131437989288e-01
    cashProportion[4]  findWorstP[7,4]  -9.8010389101244738e-02
    cashProportion[4]  findWorstP[8,4]  -5.8343057176196034e-01
    cashProportion[5]  allocateAllCash  1
    cashProportion[5]  findWorstP[1,5]  -1.3757050488375294e-01
    cashProportion[5]  findWorstP[2,5]  -1.0017028949213665e-01
    cashProportion[5]  findWorstP[3,5]  -2.5393600812595224e-01
    cashProportion[5]  findWorstP[4,5]  -3.4281796366129585e-01
    cashProportion[5]  findWorstP[5,1]  1.9319938176197834e-01
    cashProportion[5]  findWorstP[5,2]  1.9319938176197834e-01
    cashProportion[5]  findWorstP[5,3]  1.9319938176197834e-01
    cashProportion[5]  findWorstP[5,4]  1.9319938176197834e-01
    cashProportion[5]  findWorstP[5,6]  1.9319938176197834e-01
    cashProportion[5]  findWorstP[5,7]  1.9319938176197834e-01
    cashProportion[5]  findWorstP[5,8]  1.9319938176197834e-01
    cashProportion[5]  findWorstP[6,5]  -4.1203131437989288e-01
    cashProportion[5]  findWorstP[7,5]  -9.8010389101244738e-02
    cashProportion[5]  findWorstP[8,5]  -5.8343057176196034e-01
    cashProportion[6]  allocateAllCash  1
    cashProportion[6]  findWorstP[1,6]  -1.3757050488375294e-01
    cashProportion[6]  findWorstP[2,6]  -1.0017028949213665e-01
    cashProportion[6]  findWorstP[3,6]  -2.5393600812595224e-01
    cashProportion[6]  findWorstP[4,6]  -3.4281796366129585e-01
    cashProportion[6]  findWorstP[5,6]  -1.9319938176197834e-01
    cashProportion[6]  findWorstP[6,1]  4.1203131437989288e-01
    cashProportion[6]  findWorstP[6,2]  4.1203131437989288e-01
    cashProportion[6]  findWorstP[6,3]  4.1203131437989288e-01
    cashProportion[6]  findWorstP[6,4]  4.1203131437989288e-01
    cashProportion[6]  findWorstP[6,5]  4.1203131437989288e-01
    cashProportion[6]  findWorstP[6,7]  4.1203131437989288e-01
    cashProportion[6]  findWorstP[6,8]  4.1203131437989288e-01
    cashProportion[6]  findWorstP[7,6]  -9.8010389101244738e-02
    cashProportion[6]  findWorstP[8,6]  -5.8343057176196034e-01
    cashProportion[7]  allocateAllCash  1
    cashProportion[7]  findWorstP[1,7]  -1.3757050488375294e-01
    cashProportion[7]  findWorstP[2,7]  -1.0017028949213665e-01
    cashProportion[7]  findWorstP[3,7]  -2.5393600812595224e-01
    cashProportion[7]  findWorstP[4,7]  -3.4281796366129585e-01
    cashProportion[7]  findWorstP[5,7]  -1.9319938176197834e-01
    cashProportion[7]  findWorstP[6,7]  -4.1203131437989288e-01
    cashProportion[7]  findWorstP[7,1]  9.8010389101244738e-02
    cashProportion[7]  findWorstP[7,2]  9.8010389101244738e-02
    cashProportion[7]  findWorstP[7,3]  9.8010389101244738e-02
    cashProportion[7]  findWorstP[7,4]  9.8010389101244738e-02
    cashProportion[7]  findWorstP[7,5]  9.8010389101244738e-02
    cashProportion[7]  findWorstP[7,6]  9.8010389101244738e-02
    cashProportion[7]  findWorstP[7,8]  9.8010389101244738e-02
    cashProportion[7]  findWorstP[8,7]  -5.8343057176196034e-01
    cashProportion[8]  allocateAllCash  1
    cashProportion[8]  findWorstP[1,8]  -1.3757050488375294e-01
    cashProportion[8]  findWorstP[2,8]  -1.0017028949213665e-01
    cashProportion[8]  findWorstP[3,8]  -2.5393600812595224e-01
    cashProportion[8]  findWorstP[4,8]  -3.4281796366129585e-01
    cashProportion[8]  findWorstP[5,8]  -1.9319938176197834e-01
    cashProportion[8]  findWorstP[6,8]  -4.1203131437989288e-01
    cashProportion[8]  findWorstP[7,8]  -9.8010389101244738e-02
    cashProportion[8]  findWorstP[8,1]  5.8343057176196034e-01
    cashProportion[8]  findWorstP[8,2]  5.8343057176196034e-01
    cashProportion[8]  findWorstP[8,3]  5.8343057176196034e-01
    cashProportion[8]  findWorstP[8,4]  5.8343057176196034e-01
    cashProportion[8]  findWorstP[8,5]  5.8343057176196034e-01
    cashProportion[8]  findWorstP[8,6]  5.8343057176196034e-01
    cashProportion[8]  findWorstP[8,7]  5.8343057176196034e-01
    MARKER    'MARKER'                 'INTORG'
    x[1,1]    allocateEach[1]  1
    x[1,1]    findWorstP[1,2]  8.6242949511624711e-01
    x[1,1]    findWorstP[1,3]  8.6242949511624711e-01
    x[1,1]    findWorstP[1,4]  8.6242949511624711e-01
    x[1,1]    findWorstP[1,5]  8.6242949511624711e-01
    x[1,1]    findWorstP[1,6]  8.6242949511624711e-01
    x[1,1]    findWorstP[1,7]  8.6242949511624711e-01
    x[1,1]    findWorstP[1,8]  8.6242949511624711e-01
    x[1,1]    findWorstP[2,1]  -8.9982971050786342e-01
    x[1,1]    findWorstP[3,1]  -7.4606399187404771e-01
    x[1,1]    findWorstP[4,1]  -6.5718203633870420e-01
    x[1,1]    findWorstP[5,1]  -8.0680061823802152e-01
    x[1,1]    findWorstP[6,1]  -5.8796868562010707e-01
    x[1,1]    findWorstP[7,1]  -9.0198961089875529e-01
    x[1,1]    findWorstP[8,1]  -4.1656942823803972e-01
    x[2,1]    allocateEach[1]  1
    x[2,1]    findWorstP[1,2]  -8.6242949511624711e-01
    x[2,1]    findWorstP[2,1]  8.9982971050786342e-01
    x[2,1]    findWorstP[2,3]  8.9982971050786342e-01
    x[2,1]    findWorstP[2,4]  8.9982971050786342e-01
    x[2,1]    findWorstP[2,5]  8.9982971050786342e-01
    x[2,1]    findWorstP[2,6]  8.9982971050786342e-01
    x[2,1]    findWorstP[2,7]  8.9982971050786342e-01
    x[2,1]    findWorstP[2,8]  8.9982971050786342e-01
    x[2,1]    findWorstP[3,2]  -7.4606399187404771e-01
    x[2,1]    findWorstP[4,2]  -6.5718203633870420e-01
    x[2,1]    findWorstP[5,2]  -8.0680061823802152e-01
    x[2,1]    findWorstP[6,2]  -5.8796868562010707e-01
    x[2,1]    findWorstP[7,2]  -9.0198961089875529e-01
    x[2,1]    findWorstP[8,2]  -4.1656942823803972e-01
    x[3,1]    allocateEach[1]  1
    x[3,1]    findWorstP[1,3]  -8.6242949511624711e-01
    x[3,1]    findWorstP[2,3]  -8.9982971050786342e-01
    x[3,1]    findWorstP[3,1]  7.4606399187404771e-01
    x[3,1]    findWorstP[3,2]  7.4606399187404771e-01
    x[3,1]    findWorstP[3,4]  7.4606399187404771e-01
    x[3,1]    findWorstP[3,5]  7.4606399187404771e-01
    x[3,1]    findWorstP[3,6]  7.4606399187404771e-01
    x[3,1]    findWorstP[3,7]  7.4606399187404771e-01
    x[3,1]    findWorstP[3,8]  7.4606399187404771e-01
    x[3,1]    findWorstP[4,3]  -6.5718203633870420e-01
    x[3,1]    findWorstP[5,3]  -8.0680061823802152e-01
    x[3,1]    findWorstP[6,3]  -5.8796868562010707e-01
    x[3,1]    findWorstP[7,3]  -9.0198961089875529e-01
    x[3,1]    findWorstP[8,3]  -4.1656942823803972e-01
    x[4,1]    allocateEach[1]  1
    x[4,1]    findWorstP[1,4]  -8.6242949511624711e-01
    x[4,1]    findWorstP[2,4]  -8.9982971050786342e-01
    x[4,1]    findWorstP[3,4]  -7.4606399187404771e-01
    x[4,1]    findWorstP[4,1]  6.5718203633870420e-01
    x[4,1]    findWorstP[4,2]  6.5718203633870420e-01
    x[4,1]    findWorstP[4,3]  6.5718203633870420e-01
    x[4,1]    findWorstP[4,5]  6.5718203633870420e-01
    x[4,1]    findWorstP[4,6]  6.5718203633870420e-01
    x[4,1]    findWorstP[4,7]  6.5718203633870420e-01
    x[4,1]    findWorstP[4,8]  6.5718203633870420e-01
    x[4,1]    findWorstP[5,4]  -8.0680061823802152e-01
    x[4,1]    findWorstP[6,4]  -5.8796868562010707e-01
    x[4,1]    findWorstP[7,4]  -9.0198961089875529e-01
    x[4,1]    findWorstP[8,4]  -4.1656942823803972e-01
    x[5,1]    allocateEach[1]  1
    x[5,1]    findWorstP[1,5]  -8.6242949511624711e-01
    x[5,1]    findWorstP[2,5]  -8.9982971050786342e-01
    x[5,1]    findWorstP[3,5]  -7.4606399187404771e-01
    x[5,1]    findWorstP[4,5]  -6.5718203633870420e-01
    x[5,1]    findWorstP[5,1]  8.0680061823802152e-01
    x[5,1]    findWorstP[5,2]  8.0680061823802152e-01
    x[5,1]    findWorstP[5,3]  8.0680061823802152e-01
    x[5,1]    findWorstP[5,4]  8.0680061823802152e-01
    x[5,1]    findWorstP[5,6]  8.0680061823802152e-01
    x[5,1]    findWorstP[5,7]  8.0680061823802152e-01
    x[5,1]    findWorstP[5,8]  8.0680061823802152e-01
    x[5,1]    findWorstP[6,5]  -5.8796868562010707e-01
    x[5,1]    findWorstP[7,5]  -9.0198961089875529e-01
    x[5,1]    findWorstP[8,5]  -4.1656942823803972e-01
    x[6,1]    allocateEach[1]  1
    x[6,1]    findWorstP[1,6]  -8.6242949511624711e-01
    x[6,1]    findWorstP[2,6]  -8.9982971050786342e-01
    x[6,1]    findWorstP[3,6]  -7.4606399187404771e-01
    x[6,1]    findWorstP[4,6]  -6.5718203633870420e-01
    x[6,1]    findWorstP[5,6]  -8.0680061823802152e-01
    x[6,1]    findWorstP[6,1]  5.8796868562010707e-01
    x[6,1]    findWorstP[6,2]  5.8796868562010707e-01
    x[6,1]    findWorstP[6,3]  5.8796868562010707e-01
    x[6,1]    findWorstP[6,4]  5.8796868562010707e-01
    x[6,1]    findWorstP[6,5]  5.8796868562010707e-01
    x[6,1]    findWorstP[6,7]  5.8796868562010707e-01
    x[6,1]    findWorstP[6,8]  5.8796868562010707e-01
    x[6,1]    findWorstP[7,6]  -9.0198961089875529e-01
    x[6,1]    findWorstP[8,6]  -4.1656942823803972e-01
    x[7,1]    allocateEach[1]  1
    x[7,1]    findWorstP[1,7]  -8.6242949511624711e-01
    x[7,1]    findWorstP[2,7]  -8.9982971050786342e-01
    x[7,1]    findWorstP[3,7]  -7.4606399187404771e-01
    x[7,1]    findWorstP[4,7]  -6.5718203633870420e-01
    x[7,1]    findWorstP[5,7]  -8.0680061823802152e-01
    x[7,1]    findWorstP[6,7]  -5.8796868562010707e-01
    x[7,1]    findWorstP[7,1]  9.0198961089875529e-01
    x[7,1]    findWorstP[7,2]  9.0198961089875529e-01
    x[7,1]    findWorstP[7,3]  9.0198961089875529e-01
    x[7,1]    findWorstP[7,4]  9.0198961089875529e-01
    x[7,1]    findWorstP[7,5]  9.0198961089875529e-01
    x[7,1]    findWorstP[7,6]  9.0198961089875529e-01
    x[7,1]    findWorstP[7,8]  9.0198961089875529e-01
    x[7,1]    findWorstP[8,7]  -4.1656942823803972e-01
    x[8,1]    allocateEach[1]  1
    x[8,1]    findWorstP[1,8]  -8.6242949511624711e-01
    x[8,1]    findWorstP[2,8]  -8.9982971050786342e-01
    x[8,1]    findWorstP[3,8]  -7.4606399187404771e-01
    x[8,1]    findWorstP[4,8]  -6.5718203633870420e-01
    x[8,1]    findWorstP[5,8]  -8.0680061823802152e-01
    x[8,1]    findWorstP[6,8]  -5.8796868562010707e-01
    x[8,1]    findWorstP[7,8]  -9.0198961089875529e-01
    x[8,1]    findWorstP[8,1]  4.1656942823803972e-01
    x[8,1]    findWorstP[8,2]  4.1656942823803972e-01
    x[8,1]    findWorstP[8,3]  4.1656942823803972e-01
    x[8,1]    findWorstP[8,4]  4.1656942823803972e-01
    x[8,1]    findWorstP[8,5]  4.1656942823803972e-01
    x[8,1]    findWorstP[8,6]  4.1656942823803972e-01
    x[8,1]    findWorstP[8,7]  4.1656942823803972e-01
    MARKER    'MARKER'                 'INTEND'
RHS
    RHS1      allocateEach[1]  1
    RHS1      allocateAllCash  1
BOUNDS
 UP BND1      z         1
 MI BND1      cashProportion[1]
 UP BND1      cashProportion[1]  1
 MI BND1      cashProportion[2]
 UP BND1      cashProportion[2]  1
 MI BND1      cashProportion[3]
 UP BND1      cashProportion[3]  1
 MI BND1      cashProportion[4]
 UP BND1      cashProportion[4]  1
 MI BND1      cashProportion[5]
 UP BND1      cashProportion[5]  1
 MI BND1      cashProportion[6]
 UP BND1      cashProportion[6]  1
 MI BND1      cashProportion[7]
 UP BND1      cashProportion[7]  1
 MI BND1      cashProportion[8]
 UP BND1      cashProportion[8]  1
 BV BND1      x[1,1]  
 BV BND1      x[2,1]  
 BV BND1      x[3,1]  
 BV BND1      x[4,1]  
 BV BND1      x[5,1]  
 BV BND1      x[6,1]  
 BV BND1      x[7,1]  
 BV BND1      x[8,1]  
ENDATA
